NAME : XML100_1266_06
DIMENSION : 101
NB_CLUSTERS : 3
CLUSTERING_ALG : KMeans
CLUSTERING_PARAMS : k(2)
CLUSTERS
1 0
2 3 4 10 13 16 19 20 22 29 30 31 34 35 37 38 39 41 45 48 53 54 55 57 58 59 60 62 69 70 71 73 74 77 78 79 80 82 85 86 87 90 91 94 95 99
3 1 2 5 6 7 8 9 11 12 14 15 17 18 21 23 24 25 26 27 28 32 33 36 40 42 43 44 46 47 49 50 51 52 56 61 63 64 65 66 67 68 72 75 76 81 83 84 88 89 92 93 96 97 98 100
EOF